
Gurobi 9.1.2 (linux64, gurobi_cl) logging started Fri Jul 30 13:51:56 2021

Using license file /opt/gurobi/gurobi.lic
Set parameter TimeLimit to value 600
Set parameter MIPFocus to value 1
Set parameter LogFile to value 912-MIPFocus1-Presolve2-glass4-0.log
Set parameter Presolve to value 2

Gurobi Optimizer version 9.1.2 build v9.1.2rc0 (linux64)
Copyright (c) 2021, Gurobi Optimization, LLC

Read MPS format model from file /nfs/models/mip/glass4.mps.bz2
Reading time = 0.14 seconds
glass4: 396 rows, 322 columns, 1815 nonzeros
Thread count: 4 physical cores, 8 logical processors, using up to 8 threads
Optimize a model with 396 rows, 322 columns and 1815 nonzeros
Model fingerprint: 0x0a9d9037
Variable types: 20 continuous, 302 integer (0 binary)
Coefficient statistics:
  Matrix range     [1e+00, 8e+06]
  Objective range  [1e+00, 1e+06]
  Bounds range     [1e+00, 8e+02]
  RHS range        [1e+00, 8e+06]
Presolve removed 6 rows and 6 columns
Presolve time: 0.00s
Presolved: 390 rows, 316 columns, 1803 nonzeros
Variable types: 19 continuous, 297 integer (297 binary)
Found heuristic solution: objective 3.133356e+09
Presolved: 390 rows, 316 columns, 1803 nonzeros


Root relaxation: objective 8.000024e+08, 36 iterations, 0.00 seconds

    Nodes    |    Current Node    |     Objective Bounds      |     Work
 Expl Unexpl |  Obj  Depth IntInf | Incumbent    BestBd   Gap | It/Node Time

     0     0 8.0000e+08    0   72 3.1334e+09 8.0000e+08  74.5%     -    0s
H    0     0                    2.300019e+09 8.0000e+08  65.2%     -    0s
H    0     0                    2.100018e+09 8.0000e+08  61.9%     -    0s
     0     0 8.0000e+08    0   72 2.1000e+09 8.0000e+08  61.9%     -    0s
     0     0 8.0000e+08    0   72 2.1000e+09 8.0000e+08  61.9%     -    0s
     0     0 8.0000e+08    0   75 2.1000e+09 8.0000e+08  61.9%     -    0s
     0     0 8.0000e+08    0   80 2.1000e+09 8.0000e+08  61.9%     -    0s
     0     0 8.0000e+08    0   80 2.1000e+09 8.0000e+08  61.9%     -    0s
     0     0 8.0000e+08    0   81 2.1000e+09 8.0000e+08  61.9%     -    0s
H    0     0                    2.050017e+09 8.0000e+08  61.0%     -    0s
     0     0 8.0000e+08    0   89 2.0500e+09 8.0000e+08  61.0%     -    0s
     0     0 8.0000e+08    0   89 2.0500e+09 8.0000e+08  61.0%     -    0s
H    0     0                    1.950017e+09 8.0000e+08  59.0%     -    0s
     0     0 8.0000e+08    0   89 1.9500e+09 8.0000e+08  59.0%     -    0s
     0     0 8.0000e+08    0   78 1.9500e+09 8.0000e+08  59.0%     -    0s
     0     0 8.0000e+08    0   90 1.9500e+09 8.0000e+08  59.0%     -    0s
     0     0 8.0000e+08    0   92 1.9500e+09 8.0000e+08  59.0%     -    0s
     0     0 8.0000e+08    0   85 1.9500e+09 8.0000e+08  59.0%     -    0s
     0     2 8.0000e+08    0   85 1.9500e+09 8.0000e+08  59.0%     -    0s
H  161   348                    1.900018e+09 8.0000e+08  57.9%  12.3    0s
H  367   371                    1.866684e+09 8.0000e+08  57.1%   9.3    0s
H  368   371                    1.866684e+09 8.0000e+08  57.1%   9.2    0s
H  401   497                    1.840017e+09 8.0000e+08  56.5%   9.7    0s
H  401   497                    1.800016e+09 8.0000e+08  55.6%   9.7    0s
H  734   713                    1.766684e+09 8.0001e+08  54.7%   8.8    1s
H  864   816                    1.742874e+09 8.0001e+08  54.1%   9.0    1s
H  891   815                    1.700016e+09 8.0001e+08  52.9%   8.8    1s
H 1618  1244                    1.680016e+09 8.0001e+08  52.4%   8.3    1s
* 2188  1485              53    1.650016e+09 9.0000e+08  45.5%  13.3    3s
* 2189  1425              53    1.650016e+09 9.0000e+08  45.5%  13.3    3s
  2693  1600 infeasible   42      1.6500e+09 9.0001e+08  45.5%  15.0    5s
H 2748  1517                    1.600015e+09 9.0001e+08  43.8%  15.6    5s
H 2789  1501                    1.600015e+09 9.0001e+08  43.8%  15.6    5s
* 4198  1902              65    1.600001e+09 9.0001e+08  43.7%  18.8    7s
  6170  3256 1.0000e+09   35   62 1.6000e+09 9.0001e+08  43.7%  21.0   10s
  9322  5700 9.0001e+08   46   72 1.6000e+09 9.0001e+08  43.7%  21.9   15s
 12518  7780 9.0001e+08   35   60 1.6000e+09 9.0001e+08  43.7%  21.7   20s
 17777 11263 1.0000e+09   25   77 1.6000e+09 9.0001e+08  43.7%  21.0   25s
 23339 14683 9.5001e+08   45   52 1.6000e+09 9.0001e+08  43.7%  20.3   30s
 28356 17925 9.0001e+08   31   58 1.6000e+09 9.0001e+08  43.7%  19.8   35s
 33977 21053 1.2000e+09   43   53 1.6000e+09 9.0001e+08  43.7%  19.6   40s
 37800 23189 1.2500e+09   44   31 1.6000e+09 9.0001e+08  43.7%  19.5   45s
 43456 26672 1.0000e+09   57   42 1.6000e+09 9.0001e+08  43.7%  19.5   50s
 48358 29416 9.0001e+08   47   40 1.6000e+09 9.0001e+08  43.7%  19.5   56s
 52247 31960 1.0000e+09   38   55 1.6000e+09 9.0001e+08  43.7%  19.5   60s
 57263 34149 9.3334e+08   38   41 1.6000e+09 9.0001e+08  43.7%  19.6   65s
 62544 36583 infeasible   59      1.6000e+09 9.0001e+08  43.7%  19.8   71s
H66850 38315                    1.540015e+09 9.0001e+08  41.6%  19.9   74s
 67976 38890 9.3899e+08   44   73 1.5400e+09 9.0001e+08  41.6%  19.9   75s
H68115 38890                    1.540015e+09 9.0001e+08  41.6%  19.9   75s
H69544 39190                    1.533349e+09 9.0001e+08  41.3%  19.9   77s
H69900 39711                    1.525016e+09 9.0001e+08  41.0%  19.9   78s
 71231 40285 infeasible   51      1.5250e+09 9.0001e+08  41.0%  20.0   80s
 76355 42847 1.2500e+09   56   30 1.5250e+09 9.0001e+08  41.0%  20.2   85s
 81329 45167 infeasible   52      1.5250e+09 9.0001e+08  41.0%  20.3   90s
 86786 48129 9.2501e+08   37   51 1.5250e+09 9.0001e+08  41.0%  20.4   96s
 92357 50527 1.2333e+09   70   32 1.5250e+09 9.0001e+08  41.0%  20.5  101s
 95973 52143 infeasible   46      1.5250e+09 9.0001e+08  41.0%  20.4  105s
 103043 55739 9.2501e+08   46   44 1.5250e+09 9.0001e+08  41.0%  20.2  110s
 107908 58136 1.4500e+09   51   44 1.5250e+09 9.0001e+08  41.0%  20.3  116s
 112402 61420     cutoff   73      1.5250e+09 9.0001e+08  41.0%  20.4  120s
 118237 63071 1.0000e+09   47   41 1.5250e+09 9.0001e+08  41.0%  20.1  125s
H118564 63070                    1.525015e+09 9.0001e+08  41.0%  20.1  125s
H119699 63388                    1.500015e+09 9.0001e+08  40.0%  20.1  125s
H120662 63793                    1.500015e+09 9.0001e+08  40.0%  20.2  127s
H120828 56448                    1.375015e+09 9.0001e+08  34.5%  20.2  127s
 124807 56973 1.1000e+09   57   22 1.3750e+09 9.0001e+08  34.5%  20.5  130s
H125752 56973                    1.375015e+09 9.0001e+08  34.5%  20.5  130s
 130981 57955 1.0000e+09   47   37 1.3750e+09 9.0001e+08  34.5%  21.0  135s
 136485 58502 9.0001e+08   38   35 1.3750e+09 9.0001e+08  34.5%  21.3  140s
 145603 61425 1.0000e+09   44   40 1.3750e+09 9.0001e+08  34.5%  21.5  145s
 155097 62764 infeasible   38      1.3750e+09 9.0001e+08  34.5%  21.4  150s
H161591 64826                    1.375015e+09 9.0001e+08  34.5%  21.5  154s
 164087 64942 1.2000e+09   42   30 1.3750e+09 9.0001e+08  34.5%  21.4  155s
 169925 67059 1.0750e+09   60   38 1.3750e+09 9.0001e+08  34.5%  21.6  160s
 178736 67647 infeasible   50      1.3750e+09 9.0001e+08  34.5%  21.5  165s
 185957 69273 1.0810e+09   65   34 1.3750e+09 9.0001e+08  34.5%  21.7  170s
 193475 69622 1.2737e+09   65   31 1.3750e+09 9.0001e+08  34.5%  21.7  175s
 201874 70788 9.0001e+08   52   41 1.3750e+09 9.0001e+08  34.5%  21.8  180s
 207854 70949 infeasible   61      1.3750e+09 9.0001e+08  34.5%  21.9  185s
 217640 72416 infeasible   48      1.3750e+09 9.0001e+08  34.5%  21.9  190s
 226284 73681 infeasible   48      1.3750e+09 9.0001e+08  34.5%  22.0  195s
 234068 73163 infeasible   63      1.3750e+09 9.0001e+08  34.5%  22.0  200s
 240358 72645 1.1070e+09   66   42 1.3750e+09 9.1668e+08  33.3%  22.2  205s
 249971 74118     cutoff   50      1.3750e+09 9.2501e+08  32.7%  22.0  210s
H254684 73286                    1.366682e+09 9.3334e+08  31.7%  22.2  214s
 255433 73106     cutoff   36      1.3667e+09 9.3334e+08  31.7%  22.2  215s
H256500 53887                    1.200013e+09 9.3334e+08  22.2%  22.2  215s
 280786 32148 1.0740e+09   30   50 1.2000e+09 1.0500e+09  12.5%  21.5  220s

Cutting planes:
  Gomory: 49
  Cover: 8
  Implied bound: 46
  MIR: 70
  Flow cover: 348
  Inf proof: 1
  RLT: 188
  Relax-and-lift: 155

Explored 311973 nodes (6240369 simplex iterations) in 222.96 seconds
Thread count was 8 (of 8 available processors)

Solution count 10: 1.20001e+09 1.36668e+09 1.37501e+09 ... 1.53335e+09

Optimal solution found (tolerance 1.00e-04)
Best objective 1.200012600000e+09, best bound 1.200003608105e+09, gap 0.0007%
